(set-info :Origin "This instance was generated by: BanditFuzz-- an RL fuzzer for SMT solvers" )
(set-info :Author "Joe Scott, Fed Mora, Vijay Ganesh" )
(set-info :Contact "Joe Scott, joseph.scott@uwaterloo.ca")
(set-logic QF_BV)
(declare-const bool_0 Bool)
(declare-const bool_1 Bool)
(declare-const bool_2 Bool)
(declare-const bool_3 Bool)
(declare-const bool_4 Bool)
(declare-const bv_0 (_ BitVec 32))
(declare-const bv_1 (_ BitVec 32))
(declare-const bv_2 (_ BitVec 32))
(declare-const bv_3 (_ BitVec 32))
(declare-const bv_4 (_ BitVec 32))
(assert (bvuge (bvadd (bvxnor #x0be83a76  bv_2) (bvsub #x4919536d  #x1c32e82a )) (bvnor (bvlshr #x38fe6afe  #xa993a285 ) (bvand bv_3 bv_1))))
(assert (bvsgt (bvnand (bvxor bv_1 bv_4) (bvmul #x0cdb02c3  #xb557b7a1 )) (bvsmod (bvshl #x95e2c390  #x5cb384ae ) (bvnand #xe2ff548b  bv_4))))
(assert (bvult (bvshl (bvnand bv_3 #x82375a9c ) (bvand bv_2 #x61220c19 )) (bvmul (bvsmod #xd1dadd0f  bv_4) (bvurem bv_1 #x7b5e2253 ))))
(assert (bvult (bvnor (bvudiv #x022f5cb9  bv_3) (bvsdiv #x5731cff8  bv_0)) (bvurem (bvsmod bv_0 #x53308f60 ) (bvshl #xe561b802  #x8c86e35e ))))
(assert (bvult (bvlshr (bvadd bv_0 #x1dfa855a ) (bvnor bv_0 bv_1)) (bvadd (bvand bv_2 bv_1) (bvlshr #x691f26cd  bv_3))))
(check-sat)
(exit)
